(set-logic QF_S)
(declare-fun var_0xINPUT_131036 () String)
(assert (and (not (= var_0xINPUT_131036 "AA1ND6MEXd")) (= (len var_0xINPUT_131036) 0) (not (= var_0xINPUT_131036 "Example:")) (not (= var_0xINPUT_131036 "AA1ND6MEXd"))))
(check-sat var_0xINPUT_131036)